3544
6 96
6 58
56 43
26 65
2 96
84 76
36 27
99 22
76 30
56 46
9 60
49 31
12 92
57 57
41 45
5 13
28 12
64 89
84 26
96 83
50 20
0 52
67 81
55 45
39 92
98 98
69 64
19 20
5 61
62 25
54 59
64 41
77 41
68 56
3 24
54 3
13 63
16 97
54 9
59 47
8 18
37 56
40 57
1 79
12 10
89 39
38 68
82 62
6 27
15 57
74 70
2 16
10 24
31 37
79 60
15 88
58 62
74 99
49 76
9 43
90 35
86 11
8 36
34 0
50 51
25 42
85 43
43 39
43 90
90 74
13 16
91 4
49 25
18 58
12 73
7 46
59 92
41 1
14 1
8 6
70 47
26 70
37 15
58 76
48 54
69 15
16 93
68 86
46 11
64 20
25 10
17 29
82 17
29 98
51 54
68 85
70 67
81 81
36 35
57 38
